benchmarks_CP/INST_49x49/50/inst49x49_50_14.dzn
S=7;
start=[|
26,	-1,	43,	9,	-1,	10,	19,	-1,	16,	-1,	38,	13,	42,	-1,	36,	-1,	-1,	49,	-1,	-1,	20,	-1,	-1,	15,	23,	11,	41,	29,	33,	-1,	-1,	7,	2,	46,	-1,	-1,	-1,	-1,	-1,	32,	-1,	-1,	25,	-1,	-1,	-1,	-1,	27,	18|
16,	31,	-1,	-1,	-1,	-1,	-1,	2,	-1,	32,	-1,	-1,	-1,	21,	-1,	-1,	37,	39,	-1,	-1,	-1,	-1,	12,	-1,	40,	46,	-1,	-1,	-1,	6,	-1,	-1,	14,	-1,	-1,	-1,	11,	15,	-1,	10,	-1,	-1,	-1,	4,	-1,	28,	3,	36,	-1|
33,	15,	23,	4,	-1,	-1,	49,	30,	-1,	41,	35,	-1,	-1,	8,	-1,	1,	28,	48,	-1,	-1,	-1,	32,	-1,	-1,	-1,	13,	-1,	-1,	44,	-1,	11,	-1,	-1,	31,	26,	-1,	-1,	-1,	17,	42,	36,	-1,	-1,	7,	-1,	10,	-1,	-1,	20|
13,	-1,	-1,	21,	-1,	40,	-1,	25,	39,	-1,	15,	43,	31,	9,	-1,	-1,	-1,	6,	29,	-1,	-1,	16,	-1,	-1,	-1,	-1,	5,	24,	-1,	-1,	-1,	27,	49,	36,	-1,	26,	1,	-1,	-1,	-1,	-1,	7,	-1,	-1,	47,	-1,	34,	-1,	35|
-1,	35,	5,	-1,	-1,	32,	42,	47,	44,	-1,	-1,	22,	-1,	11,	13,	-1,	-1,	-1,	33,	19,	40,	-1,	-1,	-1,	30,	7,	-1,	43,	15,	38,	-1,	-1,	-1,	16,	-1,	49,	23,	46,	-1,	-1,	37,	-1,	-1,	45,	21,	8,	-1,	-1,	-1|
-1,	7,	-1,	-1,	45,	-1,	-1,	49,	-1,	-1,	36,	-1,	46,	-1,	43,	-1,	25,	10,	16,	8,	-1,	47,	35,	44,	22,	39,	-1,	17,	21,	-1,	-1,	40,	-1,	1,	-1,	30,	41,	4,	2,	38,	-1,	9,	32,	-1,	42,	13,	11,	-1,	-1|
-1,	3,	28,	44,	-1,	-1,	36,	40,	24,	-1,	-1,	-1,	45,	37,	11,	47,	-1,	4,	2,	31,	7,	26,	-1,	34,	-1,	33,	-1,	21,	-1,	-1,	23,	-1,	25,	43,	19,	27,	-1,	-1,	12,	-1,	35,	-1,	41,	-1,	-1,	-1,	16,	15,	-1|
14,	25,	47,	-1,	33,	37,	44,	16,	18,	-1,	30,	-1,	40,	-1,	-1,	-1,	8,	35,	1,	11,	2,	20,	-1,	4,	38,	27,	32,	-1,	28,	-1,	3,	-1,	-1,	41,	-1,	43,	-1,	48,	-1,	-1,	-1,	12,	-1,	-1,	-1,	29,	45,	-1,	-1|
6,	-1,	-1,	27,	-1,	-1,	-1,	34,	22,	-1,	44,	36,	-1,	46,	-1,	-1,	41,	47,	-1,	-1,	25,	30,	-1,	11,	24,	-1,	39,	42,	43,	18,	-1,	15,	-1,	38,	-1,	40,	17,	21,	9,	3,	-1,	-1,	2,	32,	31,	12,	49,	-1,	-1|
-1,	39,	-1,	-1,	42,	-1,	-1,	-1,	-1,	24,	28,	-1,	43,	41,	3,	19,	-1,	-1,	26,	44,	-1,	14,	-1,	49,	36,	35,	-1,	-1,	37,	-1,	-1,	45,	-1,	11,	4,	-1,	2,	23,	-1,	8,	32,	30,	-1,	20,	33,	-1,	18,	6,	38|
-1,	-1,	-1,	-1,	28,	-1,	-1,	37,	3,	-1,	-1,	-1,	-1,	14,	6,	21,	4,	40,	-1,	12,	-1,	43,	-1,	48,	18,	26,	-1,	-1,	39,	33,	-1,	-1,	-1,	49,	-1,	-1,	-1,	-1,	-1,	13,	-1,	46,	-1,	-1,	25,	-1,	-1,	44,	-1|
12,	46,	-1,	-1,	19,	-1,	23,	-1,	48,	25,	2,	-1,	33,	-1,	27,	-1,	-1,	29,	-1,	-1,	30,	-1,	21,	-1,	-1,	-1,	6,	-1,	-1,	32,	-1,	8,	-1,	-1,	47,	42,	31,	-1,	45,	-1,	-1,	28,	43,	36,	24,	9,	4,	5,	14|
30,	24,	2,	-1,	9,	-1,	-1,	19,	49,	-1,	-1,	17,	-1,	-1,	-1,	43,	-1,	-1,	38,	-1,	-1,	22,	-1,	29,	10,	8,	-1,	28,	6,	36,	5,	-1,	34,	-1,	25,	-1,	-1,	39,	-1,	14,	27,	-1,	-1,	11,	23,	37,	-1,	7,	41|
36,	-1,	-1,	-1,	-1,	-1,	-1,	-1,	8,	45,	11,	4,	-1,	1,	-1,	-1,	15,	-1,	-1,	-1,	5,	12,	-1,	41,	9,	-1,	17,	37,	-1,	19,	-1,	30,	16,	23,	-1,	18,	-1,	-1,	-1,	47,	-1,	25,	-1,	13,	22,	3,	26,	-1,	27|
-1,	18,	10,	5,	17,	-1,	46,	38,	2,	11,	29,	12,	-1,	-1,	-1,	9,	31,	27,	-1,	20,	-1,	-1,	37,	-1,	25,	-1,	-1,	-1,	-1,	34,	39,	28,	-1,	-1,	-1,	14,	40,	36,	-1,	4,	-1,	-1,	35,	-1,	16,	-1,	-1,	-1,	3|
-1,	19,	-1,	38,	23,	9,	-1,	-1,	6,	17,	-1,	-1,	-1,	32,	25,	-1,	10,	21,	4,	-1,	-1,	1,	-1,	20,	33,	48,	35,	12,	-1,	46,	-1,	-1,	45,	-1,	16,	15,	-1,	26,	-1,	-1,	3,	-1,	-1,	43,	40,	18,	39,	41,	34|
40,	-1,	-1,	-1,	16,	-1,	32,	-1,	42,	26,	-1,	49,	-1,	-1,	-1,	-1,	23,	-1,	14,	39,	-1,	45,	-1,	2,	-1,	9,	-1,	4,	-1,	48,	-1,	1,	41,	15,	12,	-1,	7,	28,	34,	-1,	33,	-1,	21,	-1,	27,	19,	25,	20,	-1|
-1,	34,	-1,	-1,	1,	-1,	31,	21,	-1,	16,	41,	25,	48,	43,	-1,	-1,	49,	44,	-1,	40,	-1,	8,	32,	-1,	-1,	-1,	38,	-1,	47,	9,	2,	35,	26,	10,	-1,	-1,	-1,	27,	-1,	-1,	-1,	39,	-1,	30,	-1,	-1,	-1,	-1,	46|
-1,	-1,	11,	6,	37,	-1,	-1,	8,	-1,	23,	39,	28,	4,	34,	-1,	13,	35,	-1,	30,	-1,	-1,	-1,	-1,	40,	-1,	-1,	44,	-1,	-1,	43,	7,	19,	21,	-1,	20,	22,	-1,	25,	-1,	-1,	10,	-1,	-1,	17,	-1,	26,	32,	-1,	33|
-1,	-1,	33,	35,	25,	-1,	39,	-1,	5,	-1,	-1,	-1,	18,	-1,	-1,	-1,	-1,	-1,	-1,	-1,	-1,	-1,	43,	-1,	21,	-1,	22,	-1,	-1,	31,	-1,	-1,	38,	17,	40,	-1,	12,	47,	6,	30,	-1,	-1,	-1,	-1,	2,	-1,	29,	24,	-1|
27,	-1,	15,	43,	-1,	-1,	12,	-1,	20,	3,	-1,	37,	1,	-1,	-1,	45,	2,	-1,	19,	24,	18,	10,	-1,	-1,	16,	28,	30,	-1,	-1,	-1,	4,	22,	5,	44,	-1,	46,	29,	-1,	49,	48,	17,	-1,	6,	-1,	9,	11,	-1,	38,	47|
-1,	-1,	-1,	-1,	34,	-1,	-1,	-1,	19,	-1,	-1,	-1,	-1,	-1,	-1,	-1,	-1,	42,	-1,	-1,	-1,	-1,	25,	35,	4,	17,	-1,	-1,	13,	3,	-1,	48,	47,	-1,	-1,	-1,	28,	20,	-1,	27,	38,	14,	-1,	18,	-1,	31,	-1,	-1,	44|
-1,	12,	-1,	46,	18,	-1,	-1,	-1,	37,	-1,	-1,	33,	15,	-1,	40,	8,	-1,	41,	31,	43,	4,	-1,	14,	7,	20,	-1,	13,	-1,	25,	-1,	44,	2,	23,	34,	24,	-1,	19,	22,	-1,	-1,	-1,	48,	-1,	6,	-1,	17,	-1,	21,	9|
-1,	-1,	45,	-1,	-1,	20,	43,	23,	46,	-1,	18,	-1,	-1,	-1,	-1,	-1,	-1,	5,	-1,	-1,	-1,	-1,	-1,	9,	-1,	-1,	-1,	10,	4,	17,	-1,	-1,	-1,	40,	35,	-1,	30,	-1,	25,	-1,	21,	6,	-1,	-1,	36,	-1,	41,	47,	-1|
17,	16,	26,	49,	31,	2,	-1,	-1,	-1,	-1,	25,	8,	-1,	-1,	39,	46,	-1,	-1,	-1,	35,	22,	-1,	41,	-1,	-1,	21,	-1,	30,	-1,	29,	18,	6,	-1,	-1,	-1,	44,	-1,	-1,	3,	-1,	-1,	-1,	-1,	-1,	-1,	15,	-1,	-1,	37|
-1,	38,	40,	-1,	-1,	39,	47,	41,	-1,	-1,	42,	9,	-1,	44,	-1,	-1,	-1,	37,	-1,	28,	6,	-1,	22,	-1,	11,	-1,	27,	16,	-1,	20,	-1,	36,	30,	5,	33,	-1,	-1,	49,	-1,	-1,	12,	-1,	-1,	25,	46,	-1,	-1,	-1,	29|
21,	42,	9,	-1,	15,	3,	13,	-1,	12,	31,	-1,	34,	-1,	-1,	33,	20,	-1,	-1,	-1,	45,	-1,	19,	36,	-1,	26,	40,	-1,	-1,	41,	-1,	-1,	-1,	32,	-1,	-1,	-1,	46,	-1,	37,	18,	-1,	-1,	-1,	-1,	7,	16,	-1,	39,	-1|
10,	-1,	29,	-1,	44,	25,	-1,	3,	-1,	30,	-1,	26,	-1,	48,	49,	-1,	36,	-1,	7,	27,	19,	-1,	6,	-1,	46,	38,	18,	-1,	42,	1,	21,	-1,	-1,	22,	-1,	-1,	-1,	-1,	-1,	-1,	-1,	-1,	-1,	12,	-1,	-1,	2,	-1,	-1|
-1,	33,	24,	-1,	-1,	31,	7,	17,	-1,	20,	-1,	27,	-1,	49,	41,	48,	-1,	-1,	-1,	-1,	-1,	13,	-1,	22,	-1,	43,	-1,	-1,	19,	-1,	-1,	-1,	6,	-1,	39,	29,	-1,	-1,	-1,	1,	14,	38,	45,	16,	3,	2,	-1,	-1,	-1|
20,	-1,	19,	-1,	8,	6,	-1,	-1,	-1,	44,	33,	-1,	-1,	18,	28,	-1,	-1,	-1,	-1,	1,	47,	39,	-1,	46,	12,	-1,	-1,	-1,	45,	-1,	31,	-1,	-1,	-1,	-1,	-1,	4,	-1,	-1,	-1,	-1,	-1,	42,	9,	26,	36,	10,	-1,	7|
-1,	-1,	25,	12,	-1,	-1,	38,	46,	-1,	-1,	-1,	-1,	-1,	39,	-1,	-1,	7,	-1,	34,	32,	23,	-1,	9,	10,	31,	-1,	26,	49,	-1,	-1,	-1,	-1,	-1,	-1,	-1,	45,	8,	18,	36,	-1,	-1,	-1,	37,	-1,	-1,	40,	35,	-1,	-1|
-1,	45,	-1,	26,	-1,	-1,	2,	-1,	-1,	-1,	-1,	-1,	24,	-1,	-1,	-1,	3,	-1,	35,	-1,	-1,	15,	19,	18,	-1,	36,	-1,	-1,	-1,	-1,	32,	-1,	46,	-1,	-1,	-1,	-1,	-1,	-1,	-1,	-1,	-1,	-1,	21,	34,	-1,	-1,	-1,	-1|
-1,	-1,	-1,	-1,	-1,	11,	-1,	7,	-1,	-1,	34,	21,	-1,	29,	-1,	-1,	-1,	2,	15,	-1,	49,	-1,	-1,	32,	-1,	16,	-1,	45,	-1,	-1,	35,	-1,	28,	14,	-1,	17,	-1,	19,	-1,	-1,	-1,	24,	-1,	31,	38,	1,	-1,	33,	-1|
-1,	-1,	-1,	23,	40,	-1,	34,	-1,	-1,	-1,	19,	41,	36,	47,	-1,	-1,	11,	31,	-1,	30,	38,	2,	-1,	21,	7,	1,	42,	35,	-1,	4,	48,	10,	-1,	25,	9,	6,	3,	12,	-1,	-1,	-1,	-1,	-1,	-1,	14,	27,	44,	-1,	49|
1,	21,	-1,	-1,	49,	28,	-1,	15,	23,	-1,	-1,	31,	-1,	2,	10,	4,	9,	24,	-1,	-1,	45,	-1,	-1,	33,	-1,	-1,	-1,	-1,	-1,	8,	40,	16,	13,	-1,	36,	-1,	48,	-1,	-1,	34,	-1,	-1,	-1,	-1,	-1,	6,	-1,	46,	43|
49,	-1,	34,	16,	-1,	-1,	27,	36,	31,	-1,	43,	-1,	39,	-1,	32,	18,	-1,	8,	-1,	22,	-1,	7,	13,	38,	42,	-1,	-1,	-1,	-1,	14,	12,	47,	-1,	6,	-1,	-1,	-1,	37,	-1,	-1,	15,	45,	19,	-1,	-1,	21,	-1,	1,	10|
-1,	-1,	-1,	2,	-1,	-1,	-1,	-1,	40,	-1,	-1,	1,	27,	13,	29,	3,	16,	-1,	47,	-1,	10,	36,	24,	37,	35,	30,	11,	-1,	-1,	15,	33,	-1,	-1,	39,	8,	21,	-1,	-1,	-1,	9,	6,	-1,	-1,	38,	-1,	45,	-1,	14,	-1|
-1,	-1,	42,	45,	-1,	-1,	9,	-1,	-1,	-1,	47,	46,	28,	26,	4,	30,	34,	-1,	20,	49,	13,	-1,	-1,	-1,	-1,	-1,	-1,	8,	-1,	7,	25,	5,	-1,	-1,	-1,	-1,	-1,	11,	-1,	-1,	-1,	-1,	-1,	33,	18,	39,	-1,	-1,	12|
5,	23,	7,	8,	6,	-1,	15,	33,	-1,	19,	-1,	-1,	25,	30,	31,	-1,	12,	-1,	-1,	-1,	27,	49,	47,	-1,	39,	-1,	21,	46,	-1,	-1,	-1,	-1,	-1,	37,	18,	-1,	-1,	13,	-1,	35,	-1,	3,	-1,	41,	-1,	-1,	42,	32,	-1|
-1,	29,	31,	24,	-1,	-1,	40,	-1,	-1,	21,	-1,	44,	-1,	-1,	-1,	-1,	-1,	45,	-1,	9,	-1,	-1,	-1,	-1,	19,	22,	10,	14,	-1,	23,	30,	38,	42,	-1,	32,	8,	39,	-1,	-1,	-1,	-1,	-1,	46,	-1,	-1,	20,	-1,	49,	11|
-1,	47,	46,	-1,	3,	21,	11,	-1,	32,	-1,	-1,	-1,	29,	-1,	48,	-1,	6,	-1,	39,	-1,	41,	18,	28,	26,	-1,	-1,	-1,	-1,	35,	2,	-1,	20,	-1,	27,	49,	12,	-1,	10,	14,	23,	19,	17,	-1,	-1,	-1,	-1,	31,	-1,	-1|
-1,	-1,	20,	39,	-1,	33,	14,	-1,	41,	-1,	8,	-1,	9,	-1,	-1,	7,	-1,	-1,	-1,	-1,	-1,	17,	-1,	-1,	45,	4,	29,	31,	-1,	28,	36,	24,	-1,	13,	34,	-1,	49,	-1,	27,	46,	42,	-1,	-1,	3,	15,	-1,	6,	-1,	-1|
-1,	-1,	-1,	14,	24,	-1,	-1,	26,	1,	28,	4,	-1,	35,	-1,	2,	-1,	-1,	-1,	-1,	7,	-1,	-1,	-1,	-1,	-1,	-1,	15,	22,	3,	-1,	-1,	25,	36,	-1,	-1,	-1,	27,	-1,	-1,	-1,	-1,	11,	-1,	-1,	8,	-1,	37,	12,	-1|
25,	-1,	1,	-1,	-1,	-1,	-1,	-1,	-1,	9,	24,	39,	-1,	16,	-1,	-1,	13,	-1,	-1,	-1,	28,	38,	-1,	30,	-1,	-1,	7,	27,	-1,	-1,	22,	-1,	17,	35,	42,	-1,	-1,	5,	-1,	-1,	45,	21,	-1,	-1,	6,	33,	47,	4,	-1|
47,	-1,	6,	11,	-1,	-1,	33,	32,	14,	-1,	-1,	2,	5,	36,	44,	41,	-1,	9,	17,	-1,	12,	-1,	-1,	-1,	43,	37,	24,	-1,	-1,	-1,	49,	34,	-1,	-1,	38,	-1,	26,	16,	40,	29,	30,	4,	-1,	-1,	-1,	35,	1,	-1,	13|
-1,	17,	3,	-1,	-1,	-1,	-1,	29,	-1,	-1,	22,	-1,	-1,	25,	-1,	11,	45,	1,	5,	-1,	16,	-1,	26,	13,	-1,	31,	-1,	-1,	-1,	39,	28,	-1,	27,	47,	-1,	7,	-1,	24,	-1,	19,	8,	37,	36,	-1,	-1,	38,	-1,	-1,	-1|
-1,	5,	12,	-1,	-1,	-1,	-1,	-1,	21,	-1,	-1,	30,	-1,	-1,	24,	37,	20,	38,	-1,	-1,	39,	35,	1,	-1,	44,	-1,	-1,	-1,	18,	-1,	-1,	-1,	4,	33,	-1,	3,	13,	-1,	-1,	-1,	34,	22,	-1,	-1,	-1,	49,	14,	-1,	17|
39,	4,	-1,	10,	-1,	23,	-1,	44,	-1,	47,	31,	-1,	-1,	-1,	18,	25,	-1,	-1,	27,	-1,	-1,	-1,	11,	-1,	-1,	12,	34,	20,	8,	37,	-1,	13,	40,	-1,	-1,	35,	-1,	6,	-1,	15,	-1,	-1,	-1,	19,	-1,	24,	-1,	-1,	-1|
38,	-1,	-1,	-1,	36,	-1,	37,	-1,	7,	-1,	-1,	-1,	17,	45,	-1,	35,	19,	-1,	-1,	-1,	31,	42,	-1,	14,	2,	3,	-1,	-1,	-1,	41,	9,	29,	-1,	32,	-1,	-1,	-1,	1,	10,	-1,	20,	49,	34,	26,	11,	22,	43,	18,	-1|];
