benchmarks_LEQ/INST_49x49/50/inst49x49_50_14.txt
7
1
26	-1	-1	9	39	-1	19	28	16	1	38	13	42	-1	36	12	17	-1	45	-1	-1	-1	4	15	23	11	-1	29	-1	35	8	-1	2	46	-1	47	-1	-1	24	-1	-1	5	25	14	30	-1	40	-1	-1
-1	-1	-1	25	-1	-1	-1	-1	26	32	7	-1	-1	-1	-1	27	-1	-1	-1	41	9	-1	-1	-1	40	46	-1	-1	34	6	47	17	-1	-1	-1	33	-1	-1	-1	-1	-1	-1	38	4	49	28	3	36	-1
-1	15	23	-1	47	24	49	-1	-1	41	-1	-1	-1	8	-1	1	28	48	22	-1	3	-1	-1	27	-1	-1	9	-1	44	45	11	39	18	-1	-1	-1	-1	40	-1	42	-1	34	-1	7	37	-1	46	43	-1
-1	14	-1	21	11	-1	17	25	39	4	-1	43	31	-1	-1	32	30	6	29	-1	46	16	20	19	3	-1	-1	-1	-1	42	-1	27	49	36	10	26	1	45	8	44	28	-1	-1	-1	47	48	-1	2	-1
-1	-1	5	1	-1	32	42	-1	-1	-1	-1	-1	10	11	-1	14	-1	-1	33	-1	-1	-1	31	25	-1	7	-1	43	-1	-1	41	-1	3	16	-1	-1	-1	46	39	-1	37	-1	26	45	21	8	17	9	-1
34	7	-1	29	-1	-1	6	49	-1	33	-1	18	46	3	43	-1	25	-1	16	-1	15	47	-1	-1	-1	39	-1	17	-1	5	-1	-1	-1	-1	-1	-1	41	-1	2	38	48	-1	-1	23	42	-1	11	-1	-1
18	3	28	-1	-1	-1	-1	-1	24	48	17	-1	45	-1	-1	-1	42	-1	-1	31	-1	-1	10	-1	49	-1	-1	21	-1	-1	-1	-1	25	43	-1	27	22	14	-1	-1	-1	13	41	-1	1	5	-1	15	-1
-1	25	-1	31	33	37	-1	-1	18	-1	-1	-1	-1	-1	-1	24	8	-1	1	11	-1	20	15	4	38	27	32	-1	-1	13	3	-1	-1	41	-1	-1	-1	48	26	5	-1	12	-1	10	-1	29	45	-1	19
-1	-1	-1	27	-1	45	-1	-1	-1	-1	-1	-1	20	-1	7	-1	41	-1	23	37	-1	30	-1	-1	-1	-1	39	42	-1	18	14	15	35	38	1	-1	17	21	-1	3	29	19	2	-1	31	-1	49	8	28
15	-1	21	-1	-1	1	5	-1	47	24	-1	-1	43	-1	-1	19	22	-1	26	-1	-1	-1	16	49	36	-1	-1	25	-1	-1	17	45	-1	-1	4	-1	-1	23	7	-1	-1	30	40	20	-1	46	18	6	-1
-1	11	-1	-1	-1	-1	-1	-1	3	-1	-1	-1	-1	14	-1	-1	4	40	36	-1	32	-1	45	-1	-1	-1	-1	23	-1	33	-1	-1	31	49	2	-1	35	-1	-1	13	22	-1	15	47	-1	42	30	44	-1
12	46	18	-1	-1	-1	23	-1	48	-1	2	-1	33	-1	27	16	39	29	49	17	30	44	-1	3	1	-1	-1	13	-1	-1	26	-1	-1	20	-1	42	31	41	-1	37	11	28	-1	-1	24	9	-1	5	-1
-1	24	2	40	-1	35	-1	-1	-1	12	32	-1	-1	31	-1	-1	-1	-1	-1	33	-1	22	-1	-1	10	-1	47	28	-1	-1	-1	44	34	-1	-1	-1	-1	39	4	-1	27	1	16	-1	-1	37	-1	7	-1
-1	49	38	34	32	-1	-1	-1	8	45	-1	4	-1	-1	-1	31	-1	20	-1	-1	-1	12	40	-1	-1	2	17	-1	-1	19	-1	30	-1	-1	-1	-1	6	-1	-1	47	24	25	48	13	-1	-1	-1	35	27
45	18	10	-1	-1	-1	46	38	2	-1	29	-1	-1	19	22	-1	31	-1	41	-1	-1	-1	37	-1	-1	-1	-1	47	32	-1	-1	-1	-1	8	-1	-1	-1	-1	21	4	1	42	35	-1	-1	7	13	48	-1
-1	19	14	-1	-1	9	-1	31	6	17	-1	-1	22	32	-1	-1	10	-1	4	36	8	1	-1	20	-1	-1	-1	12	49	46	-1	-1	45	-1	16	-1	-1	-1	13	-1	-1	2	44	43	-1	18	-1	41	34
40	36	44	-1	16	-1	-1	-1	-1	26	10	49	-1	35	-1	38	-1	3	14	39	29	-1	-1	-1	-1	9	46	-1	-1	-1	-1	-1	41	15	-1	-1	-1	-1	34	43	-1	-1	-1	37	27	19	-1	20	-1
7	34	4	-1	-1	22	-1	-1	-1	-1	41	-1	-1	-1	15	33	-1	44	-1	40	11	8	32	-1	13	-1	-1	-1	-1	-1	2	35	26	10	-1	24	-1	27	20	45	5	39	-1	30	12	-1	28	-1	46
29	-1	-1	-1	37	48	24	8	-1	-1	-1	28	-1	34	46	13	35	12	30	-1	1	27	-1	-1	-1	-1	-1	3	36	-1	7	-1	-1	-1	-1	22	9	25	-1	16	10	41	49	-1	-1	-1	32	31	-1
8	20	-1	-1	-1	-1	-1	-1	-1	-1	-1	-1	-1	-1	-1	-1	32	26	-1	48	-1	-1	43	-1	-1	-1	-1	11	-1	-1	13	-1	38	17	40	-1	12	47	6	30	23	44	-1	1	2	4	-1	24	45
27	-1	-1	-1	-1	-1	12	-1	-1	3	40	-1	-1	-1	34	-1	-1	7	-1	24	18	-1	39	-1	-1	28	-1	26	-1	25	4	-1	5	-1	23	-1	-1	-1	49	48	-1	35	6	8	9	11	36	-1	47
-1	6	-1	-1	34	-1	-1	-1	19	36	-1	-1	49	22	30	2	-1	-1	-1	-1	24	-1	25	-1	-1	-1	-1	39	-1	3	46	-1	-1	12	-1	11	-1	-1	-1	-1	38	-1	-1	-1	-1	31	33	40	-1
11	12	35	46	18	-1	1	-1	37	29	45	33	15	28	40	-1	47	41	-1	43	-1	-1	-1	-1	-1	49	-1	32	-1	16	-1	-1	23	34	24	5	19	-1	42	-1	39	48	-1	-1	10	17	38	21	-1
48	-1	45	-1	-1	-1	43	23	-1	-1	18	-1	16	24	-1	15	38	-1	-1	13	44	-1	-1	9	28	-1	-1	-1	-1	-1	-1	-1	-1	-1	35	-1	-1	29	25	31	-1	6	-1	49	-1	-1	-1	-1	26
-1	16	26	-1	31	2	-1	-1	38	-1	-1	8	-1	40	39	46	1	32	-1	-1	-1	24	41	-1	34	21	12	-1	10	29	18	-1	7	9	-1	44	45	33	-1	-1	-1	47	-1	-1	19	15	-1	28	-1
-1	38	40	19	-1	39	47	41	-1	-1	42	9	-1	-1	-1	17	21	37	18	-1	-1	31	22	8	-1	-1	27	-1	-1	20	15	-1	30	5	33	-1	32	-1	-1	-1	-1	-1	-1	-1	-1	-1	48	3	29
-1	42	-1	-1	15	3	-1	-1	12	-1	6	-1	11	17	33	20	29	25	10	45	14	-1	36	47	-1	-1	48	44	41	-1	38	-1	32	28	-1	-1	46	8	37	18	-1	-1	-1	35	-1	16	-1	-1	5
-1	-1	29	33	-1	25	-1	3	-1	-1	20	-1	47	-1	-1	-1	36	-1	7	27	-1	5	-1	43	46	38	18	-1	-1	-1	-1	14	-1	-1	31	9	24	17	35	41	-1	-1	-1	12	-1	32	2	-1	-1
4	33	24	-1	-1	-1	-1	17	9	-1	26	27	-1	49	-1	48	40	46	-1	-1	36	-1	44	-1	-1	-1	-1	5	19	-1	-1	-1	-1	-1	39	29	10	-1	23	1	-1	38	45	-1	3	-1	15	-1	-1
-1	-1	19	15	8	-1	41	-1	35	-1	33	-1	-1	-1	28	29	-1	-1	-1	-1	-1	-1	-1	46	12	14	23	34	-1	-1	31	49	-1	-1	21	25	-1	-1	11	-1	16	40	-1	9	26	36	-1	13	7
42	-1	-1	-1	5	47	-1	-1	-1	-1	3	16	-1	39	-1	22	7	-1	34	-1	-1	-1	-1	10	31	-1	26	-1	-1	-1	27	33	29	2	-1	-1	8	-1	36	-1	41	-1	37	28	20	-1	35	-1	-1
44	45	39	26	-1	-1	-1	4	10	37	-1	11	24	-1	20	-1	3	-1	-1	-1	-1	-1	19	-1	48	36	-1	-1	-1	-1	-1	-1	-1	7	17	13	43	31	28	49	-1	-1	47	-1	34	-1	-1	22	25
-1	-1	36	48	10	-1	18	7	-1	-1	34	-1	13	29	8	-1	44	2	15	26	49	6	27	32	37	-1	20	-1	5	22	35	-1	-1	14	43	-1	-1	-1	30	-1	46	-1	-1	-1	-1	-1	12	-1	23
-1	43	22	23	-1	-1	-1	-1	-1	8	19	-1	-1	47	-1	-1	11	31	-1	30	38	2	17	-1	7	1	42	-1	-1	-1	-1	-1	15	25	-1	6	-1	12	5	-1	-1	-1	18	24	14	27	-1	-1	-1
-1	-1	27	-1	49	-1	35	15	-1	22	-1	31	-1	-1	10	-1	-1	24	-1	18	-1	11	29	-1	-1	25	3	38	30	-1	-1	-1	13	26	-1	-1	48	42	-1	-1	7	20	39	-1	41	-1	19	-1	43
49	-1	34	16	26	30	-1	36	31	-1	43	-1	39	5	-1	18	46	-1	11	22	-1	7	-1	-1	42	23	25	-1	-1	-1	12	47	9	6	-1	4	-1	37	41	40	15	45	19	48	28	21	24	-1	10
32	-1	17	2	12	41	25	-1	-1	18	-1	1	-1	13	-1	3	16	-1	-1	-1	10	36	-1	-1	35	30	-1	-1	46	-1	-1	31	19	-1	8	21	34	-1	-1	9	6	26	-1	-1	44	-1	7	-1	4
-1	-1	-1	-1	-1	-1	-1	-1	17	-1	47	46	-1	26	4	30	34	-1	-1	-1	-1	40	-1	-1	-1	-1	-1	8	48	-1	-1	-1	-1	-1	41	36	16	11	-1	24	-1	31	29	-1	-1	-1	-1	-1	12
5	-1	-1	-1	-1	-1	15	-1	34	19	16	-1	-1	30	-1	44	-1	-1	24	14	27	-1	-1	1	-1	20	21	-1	-1	40	-1	26	-1	-1	-1	48	-1	13	-1	-1	2	-1	9	41	17	-1	-1	-1	36
43	-1	31	-1	-1	-1	40	-1	-1	21	48	44	-1	12	1	-1	-1	-1	-1	-1	26	41	34	16	-1	22	-1	14	-1	23	-1	38	42	4	32	-1	39	-1	-1	-1	-1	33	-1	-1	35	20	27	-1	-1
22	-1	46	36	-1	21	11	42	32	-1	-1	24	29	4	-1	40	-1	33	-1	-1	41	18	28	26	-1	44	43	-1	-1	2	45	-1	1	-1	-1	-1	-1	-1	14	-1	-1	-1	8	-1	13	-1	-1	-1	-1
37	1	20	-1	-1	33	-1	-1	41	38	8	23	-1	-1	21	-1	-1	19	-1	-1	-1	-1	-1	-1	-1	4	29	-1	-1	28	36	-1	44	-1	-1	32	-1	30	-1	-1	42	-1	-1	-1	-1	-1	-1	-1	40
-1	30	-1	14	-1	29	-1	-1	1	28	-1	-1	35	-1	-1	-1	-1	-1	-1	7	-1	46	48	5	-1	-1	-1	-1	-1	-1	-1	-1	36	-1	6	23	27	-1	-1	17	-1	11	-1	-1	8	-1	-1	-1	-1
25	-1	1	-1	43	34	-1	-1	-1	-1	24	39	37	-1	26	-1	13	36	-1	3	-1	-1	-1	30	29	19	7	-1	2	10	22	-1	17	-1	-1	-1	-1	-1	-1	-1	-1	-1	-1	-1	-1	33	47	-1	15
47	22	-1	-1	7	15	33	-1	14	42	-1	-1	5	-1	-1	-1	-1	-1	17	10	12	25	-1	-1	43	37	-1	-1	-1	-1	49	34	20	-1	38	-1	26	-1	-1	-1	30	4	3	-1	-1	-1	1	-1	13
35	-1	-1	18	-1	44	20	-1	43	-1	-1	-1	34	-1	-1	-1	-1	1	-1	-1	16	21	-1	-1	41	-1	-1	40	-1	-1	-1	12	27	-1	-1	7	-1	-1	-1	19	-1	-1	-1	46	-1	-1	9	-1	-1
31	5	12	42	41	19	-1	-1	-1	10	-1	-1	-1	-1	24	-1	20	-1	32	-1	-1	-1	1	28	44	-1	16	-1	18	-1	-1	11	-1	33	15	-1	13	9	46	-1	-1	22	-1	40	29	-1	-1	25	-1
39	-1	49	10	46	-1	-1	44	33	-1	31	-1	-1	-1	18	-1	14	22	-1	29	21	9	-1	45	17	12	34	20	-1	-1	1	13	-1	-1	7	35	42	-1	48	15	-1	36	28	19	32	-1	-1	16	2
-1	8	-1	28	-1	27	37	12	7	-1	13	40	-1	45	-1	35	19	-1	-1	-1	31	42	-1	-1	2	3	33	-1	-1	-1	-1	-1	-1	32	-1	39	44	1	10	-1	20	-1	-1	26	11	22	-1	18	-1
49 
36 48 30 20
35 14 43 15
48 12 18 4
3 4 30 37
19 45 16 16
19 4 48 38
42 16 16 23
6 20 40 36
10 8 31 23
46 48 24 28
33 6 45 4
41 36 15 12
23 27 2 35
22 42 2 33
31 42 19 26
8 8 33 26
40 29 11 6
30 14 4 26
5 20 21 19
7 12 41 32
27 1 29 19
1 35 17 49
39 2 37 18
11 31 31 26
29 20 16 15
16 38 13 13
24 2 37 13
6 35 37 2
11 7 10 12
21 27 28 10
3 34 6 49
44 4 10 41
46 37 9 23
35 40 29 31
16 27 45 46
45 14 5 27
2 17 47 16
49 1 46 46
41 19 28 33
48 33 8 13
20 26 14 24
30 43 8 12
42 17 1 3
15 13 31 35
47 7 42 25
14 20 35 48
30 21 7 16
1 2 41 15
28 15 18 17
